c uprop, v00.0, 
c reading from data/prog0.c.cnf
c done reading: 0.002935
p cnf 104 403
-60 -63 0
-63 -64 0
60 63 64 0
60 64 -69 0
-60 -64 -69 0
-60 64 69 0
60 -64 69 0
63 -72 0
-72 -74 0
-63 72 74 0
-63 74 -78 0
63 -74 -78 0
63 74 78 0
-63 -74 78 0
72 -82 0
-72 82 0
-72 -85 0
72 85 0
82 -88 0
-82 88 0
-61 -82 0
61 82 0
-66 88 0
66 -88 0
-75 -88 0
75 88 0
-57 66 0
57 -66 0
-54 -66 0
54 66 0
-52 57 0
52 -57 0
-49 -57 0
49 57 0
-47 64 0
-47 60 0
47 -60 -64 0
-44 -60 -64 0
-44 60 64 0
44 60 -64 0
44 -60 64 0
42 -64 -74 0
42 -47 -74 0
42 -47 -64 0
-42 64 74 0
-42 47 74 0
-42 47 64 0
-39 -42 74 0
-39 -42 64 0
-39 -42 47 0
39 42 -74 0
39 42 -64 0
39 42 -47 0
39 -47 -64 -74 0
-39 47 64 74 0
37 -42 -74 0
-37 74 0
-37 42 0
-37 42 74 0
-35 -37 0
-35 -37 74 0
-35 -37 42 0
35 37 -74 0
35 37 -42 0
-35 42 74 0
33 -37 0
-33 37 0
39 -68 0
60 -68 0
-39 -60 68 0
-39 -60 -71 0
39 60 -71 0
-39 60 71 0
39 -60 71 0
-35 -64 77 0
-35 -68 77 0
-64 -68 77 0
35 64 -77 0
35 68 -77 0
64 68 -77 0
35 -77 -81 0
64 -77 -81 0
68 -77 -81 0
-35 77 81 0
-64 77 81 0
-68 77 81 0
-35 -64 -68 81 0
35 64 68 -81 0
-33 -74 84 0
-33 -77 84 0
-74 -77 84 0
33 74 -84 0
33 77 -84 0
74 77 -84 0
33 -84 -91 0
74 -84 -91 0
77 -84 -91 0
-33 84 91 0
-74 84 91 0
-77 84 91 0
-33 -74 -77 91 0
33 74 77 -91 0
-84 93 0
84 -93 0
81 -96 0
60 -96 0
-60 -81 96 0
-60 -81 -97 0
60 81 -97 0
60 -81 97 0
-60 81 97 0
-64 -91 98 0
-91 -96 98 0
-64 -96 98 0
64 91 -98 0
91 96 -98 0
64 96 -98 0
91 -98 -99 0
64 -98 -99 0
96 -98 -99 0
-91 98 99 0
-64 98 99 0
-96 98 99 0
-64 -91 -96 99 0
64 91 96 -99 0
-74 -93 0
-93 -98 0
-74 -98 0
-93 100 0
-74 100 0
-98 100 0
-74 -93 -98 100 0
74 93 98 -100 0
-60 -79 0
-44 -79 0
44 60 79 0
44 60 -83 0
-44 -60 -83 0
44 -60 83 0
-44 60 83 0
79 -86 0
-71 -86 0
71 -79 86 0
71 -79 -89 0
-71 79 -89 0
71 79 89 0
-71 -79 89 0
-62 86 0
-62 -97 0
62 -86 97 0
-67 -86 97 0
-67 86 -97 0
67 86 97 0
67 -86 -97 0
62 -76 0
-76 -99 0
-62 76 99 0
-58 -62 99 0
-58 62 -99 0
58 62 99 0
58 -62 -99 0
-55 76 0
-55 -100 0
55 -76 100 0
-53 -76 100 0
-53 76 -100 0
53 76 100 0
53 -76 -100 0
-50 55 0
50 -55 0
-48 -55 0
48 55 0
-45 50 0
45 -50 0
-43 -50 0
43 50 0
-40 45 0
40 -45 0
-38 -45 0
38 45 0
-36 40 0
36 -40 0
-40 -101 0
40 101 0
-34 36 0
34 -36 0
-36 -102 0
36 102 0
34 -103 0
-34 103 0
-34 -104 0
34 104 0
-32 -95 0
32 95 0
-29 -31 0
29 31 0
-26 -28 0
26 28 0
-23 -25 0
23 25 0
-22 -59 0
22 59 0
-20 -73 0
20 73 0
18 -95 0
-18 95 0
-17 -18 95 0
-17 -18 0
17 18 -95 0
17 18 0
16 -31 -95 0
16 -18 -31 0
16 -18 -95 0
-16 31 95 0
-16 18 31 0
-16 18 95 0
-15 -16 31 0
-15 -16 95 0
-15 -16 18 0
15 16 -31 0
15 16 -95 0
15 16 -18 0
15 -18 -31 -95 0
-15 18 31 95 0
14 -28 -31 0
14 -16 -28 0
14 -16 -31 0
-14 28 31 0
-14 16 28 0
-14 16 31 0
-14 28 -94 0
-14 31 -94 0
-14 16 -94 0
14 -28 94 0
14 -31 94 0
14 -16 94 0
-16 -28 -31 94 0
16 28 31 -94 0
-25 -28 30 0
-14 -25 30 0
-14 -28 30 0
25 28 -30 0
14 25 -30 0
14 28 -30 0
25 -27 -30 0
-27 28 -30 0
14 -27 -30 0
-25 27 30 0
27 -28 30 0
-14 27 30 0
-14 -25 27 -28 0
14 25 -27 28 0
-22 24 -25 0
-22 24 -30 0
24 -25 -30 0
22 -24 25 0
22 -24 30 0
-24 25 30 0
-21 22 -24 0
-21 -24 25 0
-21 -24 30 0
21 -22 24 0
21 24 -25 0
21 24 -30 0
21 -22 -25 -30 0
-21 22 25 30 0
19 -20 -22 0
19 -20 -24 0
19 -22 -24 0
-19 20 22 0
-19 20 24 0
-19 22 24 0
-13 -19 20 0
-13 -19 22 0
-13 -19 24 0
13 19 -20 0
13 19 -22 0
13 19 -24 0
13 -20 -22 -24 0
-13 20 22 24 0
-12 20 0
-12 19 0
12 -19 -20 0
-11 -19 -20 0
-11 19 20 0
11 19 -20 0
11 -19 20 0
-10 27 0
10 -27 0
9 -21 0
-9 21 0
-8 -9 21 0
-8 -9 0
8 9 -21 0
8 9 0
7 -13 -95 0
7 -9 -13 0
7 -9 -95 0
-7 13 95 0
-7 9 13 0
-7 9 95 0
-6 -7 13 0
-6 -7 95 0
-6 -7 9 0
6 7 -13 0
6 7 -95 0
6 7 -9 0
6 -9 -13 -95 0
-6 9 13 95 0
5 -11 -31 0
5 -7 -11 0
5 -7 -31 0
-5 11 31 0
-5 7 11 0
-5 7 31 0
5 -11 0
5 -31 0
5 -7 0
-7 -11 -31 0
4 -12 -28 0
4 -5 -12 0
4 -5 -28 0
-4 12 28 0
-4 5 12 0
-4 5 28 0
4 -12 0
4 -28 0
4 -5 0
-5 -12 -28 0
-3 25 0
-3 4 0
3 -4 -25 0
4 -25 0
-4 25 0
-2 22 0
-2 3 0
2 -3 -22 0
3 -22 0
-3 22 0
-2 -20 0
2 -20 0
-2 20 0
-17 -87 0
17 87 0
-15 -65 0
15 65 0
-56 -94 0
56 94 0
-10 -51 0
10 51 0
-8 -46 0
8 46 0
-6 -41 0
6 41 0
-1 60 0
-1 17 0
1 -17 -60 0
-17 -60 0
17 60 0
-15 -44 70 0
-1 -44 70 0
-1 -15 70 0
15 44 -70 0
1 44 -70 0
1 15 -70 0
44 -70 0
15 -70 0
1 -70 0
1 15 44 0
-71 80 -94 0
-70 -71 80 0
-70 80 -94 0
71 -80 94 0
70 71 -80 0
70 -80 94 0
-71 80 0
80 -94 0
-70 80 0
-70 -71 -94 0
-10 90 -97 0
-80 90 -97 0
-10 -80 90 0
10 -90 97 0
80 -90 97 0
10 80 -90 0
90 -97 0
-10 90 0
-80 90 0
-10 -80 -97 0
-8 92 -99 0
-90 92 -99 0
-8 -90 92 0
8 -92 99 0
90 -92 99 0
8 90 -92 0
92 -99 0
-8 92 0
-90 92 0
-8 -90 -99 0
-6 -100 0
-92 -100 0
-6 -92 0
6 92 100 0
